p edge 50 121
e 1 3
e 1 16
e 1 28
e 1 34
e 1 45
e 2 7
e 2 12
e 2 13
e 2 28
e 2 33
e 2 49
e 3 16
e 3 20
e 3 26
e 4 13
e 4 23
e 4 25
e 4 41
e 5 8
e 5 9
e 5 23
e 5 31
e 5 44
e 5 47
e 5 49
e 6 29
e 6 44
e 7 16
e 7 19
e 7 21
e 7 26
e 7 39
e 8 23
e 8 46
e 9 15
e 9 19
e 9 25
e 9 31
e 9 32
e 9 34
e 9 39
e 9 41
e 9 42
e 9 46
e 10 13
e 10 17
e 10 29
e 10 37
e 11 24
e 11 26
e 11 29
e 11 31
e 11 33
e 11 39
e 11 41
e 12 16
e 12 23
e 12 42
e 12 49
e 13 20
e 13 22
e 13 25
e 13 34
e 15 22
e 15 26
e 15 50
e 16 24
e 16 28
e 16 35
e 16 37
e 16 42
e 18 26
e 19 21
e 19 28
e 19 29
e 20 37
e 20 43
e 20 48
e 20 49
e 21 38
e 22 26
e 22 44
e 23 28
e 24 31
e 25 37
e 25 46
e 25 49
e 26 32
e 26 34
e 27 35
e 27 38
e 27 45
e 28 42
e 28 45
e 29 45
e 30 42
e 31 34
e 31 43
e 31 44
e 32 43
e 33 43
e 33 44
e 34 43
e 34 50
e 35 42
e 35 47
e 36 41
e 36 43
e 36 45
e 36 49
e 37 49
e 37 50
e 38 50
e 39 44
e 44 47
e 45 46
e 45 47
e 45 48
e 45 50
e 46 49
e 48 50
